0000000000000000
0000000000000000
0000000000000000
0011100000011100
0001110001110000
0001110001110000
0000111011100000
0000011111000000
0000111011100000
0001110001110000
0011100000111000
0111000000011100
0000000000000000
0000000000000000
0000000000000000
0000000000000000